CUST NO.,XCOORD.,YCOORD.,DEMAND,READY TIME,DUE DATE,SERVICE TIME
0,40,50,0,0,240,0
1,25,85,20,130,190,10
2,22,75,30,35,95,10
3,22,85,10,94,154,10
4,20,80,40,126,186,10
5,20,85,20,40,100,10
6,18,75,20,80,140,10
7,15,75,20,64,124,10
8,15,80,-10,76,136,10
9,10,35,-20,76,136,10
10,10,40,-30,104,164,10
